NAME: tsp_57
COMMENT: Random TSP instance
TYPE: TSP
DIMENSION: 50
EDGE_WEIGHT_TYPE: EUC_2D
NODE_COORD_SECTION
1 861 782
2 889 912
3 170 801
4 844 789
5 286 596
6 210 941
7 823 360
8 893 923
9 574 572
10 385 405
11 203 257
12 959 84
13 55 932
14 56 159
15 992 103
16 163 247
17 401 471
18 459 488
19 619 794
20 181 259
21 415 277
22 626 616
23 607 342
24 454 12
25 683 242
26 751 862
27 410 232
28 73 405
29 387 394
30 264 552
31 332 185
32 625 350
33 234 436
34 195 491
35 546 172
36 122 18
37 206 20
38 153 466
39 565 563
40 27 277
41 757 129
42 434 117
43 23 700
44 312 79
45 567 16
46 502 550
47 788 860
48 667 980
49 464 304
50 345 52
